(set-logic BV)

(define-fun ehad ((x (_ BitVec 64))) (_ BitVec 64)
    (bvlshr x #x0000000000000001))
(define-fun arba ((x (_ BitVec 64))) (_ BitVec 64)
    (bvlshr x #x0000000000000004))
(define-fun shesh ((x (_ BitVec 64))) (_ BitVec 64)
    (bvlshr x #x0000000000000010))
(define-fun smol ((x (_ BitVec 64))) (_ BitVec 64)
    (bvshl x #x0000000000000001))
(define-fun im ((x (_ BitVec 64)) (y (_ BitVec 64)) (z (_ BitVec 64))) (_ BitVec 64)
    (ite (= x #x0000000000000001) y z))
(synth-fun f ((x (_ BitVec 64))) (_ BitVec 64)
    ((Start (_ BitVec 64)))
    ((Start (_ BitVec 64) (#x0000000000000000 #x0000000000000001 x (bvnot Start) (smol Start) (ehad Start) (arba Start) (shesh Start) (bvand Start Start) (bvor Start Start) (bvxor Start Start) (bvadd Start Start) (im Start Start Start)))))

(constraint (= (f #xa2793ba0447489ee) #xfddeec5ffbbbf771))
(constraint (= (f #x2190c3de12635b0c) #xffefffe3ffddeeff))
(constraint (= (f #xe5ebea8de65bb421) #x0000e5ebefefeedf))
(constraint (= (f #x650402c24c0a5b17) #xfbfffffffbfffeee))
(constraint (= (f #x8ed342e62a50b171) #xf73effd9ddfffeee))
(constraint (= (f #x8b2066cac5a480e5) #x00008b20efeae7ee))
(constraint (= (f #x8647e54b7730c9ae) #xffbb9bbfc8cff775))
(constraint (= (f #x2bde841154e15b2b) #xfd637ffeebbfeedd))
(constraint (= (f #x203b9524ea07b1ce) #xfffc6effb5ffcef3))
(constraint (= (f #xe381a307106b9087) #x0000e381e387b36f))

(check-synth)

